datasets/2-dimensional/CL_07_25_02.vbp
2
150 150 
25
27 31 30
88 79 72
79 71 4
43 36 88
53 56 54
45 47 64
65 58 90
23 30 26
97 99 94
91 95 28
77 78 72
73 67 49
42 48 54
56 63 19
53 50 28
77 76 61
40 44 84
38 29 23
38 41 67
28 20 53
28 24 54
82 81 16
21 13 9
23 15 54
52 58 77
