datasets/2-dimensional/CL_07_25_02.txt
150 150 
0 30 27 31 
1 72 88 79 
2 4 79 71 
3 88 43 36 
4 54 53 56 
5 64 45 47 
6 90 65 58 
7 26 23 30 
8 94 97 99 
9 28 91 95 
10 72 77 78 
11 49 73 67 
12 54 42 48 
13 19 56 63 
14 28 53 50 
15 61 77 76 
16 84 40 44 
17 23 38 29 
18 67 38 41 
19 53 28 20 
20 54 28 24 
21 16 82 81 
22 9 21 13 
23 54 23 15 
24 77 52 58 
